162	32	4	99	
10	10	10	10

0	0	0	0	0	0	3	1	2	3
1	2	0	0	0	1	1	4
2	10	7	0	7	1	1	8
3	8	8	2	9	7	1	5
4	6	10	3	3	8	1	6
5	9	0	2	1	2	2	9	26
6	6	7	7	8	8	2	7	10
7	5	0	10	0	9	2	16	18
8	0	7	7	0	7	2	10	30
9	0	0	2	3	4	2	12	27
10	2	9	0	9	6	1	11
11	4	0	0	0	4	2	13	18
12	7	0	0	4	8	1	14
13	0	8	7	4	2	1	16
14	10	0	0	0	4	1	15
15	0	6	0	8	8	1	22
16	0	0	0	8	7	1	17
17	0	2	0	0	6	1	19
18	0	2	0	0	3	1	24
19	10	0	0	0	2	1	20
20	4	0	5	8	7	2	21	22
21	5	0	0	3	9	1	23
22	0	0	0	7	5	1	25
23	0	10	0	0	8	1	28
24	0	0	1	0	3	1	26
25	0	2	0	0	5	1	29
26	7	0	0	5	4	1	27
27	7	8	0	3	4	1	31
28	5	0	3	0	10	1	31
29	0	0	3	9	9	1	31
30	0	0	7	0	1	1	31
31	0	0	0	0	0	0
